33D32945 STP File, STP Format Version 1.0

SECTION Comment
Name "lin09-5s"
Creator "Bernd Zey"
Problem "Stochastic Steiner Tree Problem"
# Stochastic Steiner tree problem instance, base file: lin09.stp
# weight-scaling off
# parameters:
# distribution=equal
# selectRootRandomly=0
# probabilityTerminal=33
# probabilityNonTerminal=5
# 2nd stage edge-costs in [1.1000c_e, 1.3000c_e]
END

SECTION Graph
Nodes 313
Edges 532
Scenarios 5
Root 157
E 1 54 162
E 1 62 168
E 2 70 46
E 2 224 14
E 2 143 106
E 3 231 46
E 3 232 6
E 3 8 40
E 4 46 82
E 4 198 6
E 4 122 130
E 4 199 40
E 5 52 50
E 5 41 116
E 5 57 120
E 6 150 72
E 6 9 40
E 6 14 20
E 6 182 148
E 7 194 52
E 7 270 152
E 7 188 4
E 7 18 30
E 8 197 46
E 8 304 124
E 9 111 6
E 9 46 20
E 10 49 128
E 10 185 80
E 10 305 50
E 11 126 76
E 11 65 18
E 11 210 90
E 11 155 96
E 12 232 106
E 12 83 194
E 12 274 170
E 13 238 14
E 13 82 20
E 13 138 52
E 14 46 40
E 14 199 82
E 14 298 148
E 15 291 22
E 15 167 178
E 15 194 46
E 15 59 34
E 16 210 10
E 16 50 18
E 16 300 42
E 16 127 96
E 17 89 142
E 17 264 88
E 17 152 54
E 17 288 68
E 18 241 4
E 18 191 46
E 19 220 28
E 19 242 182
E 19 290 158
E 19 112 58
E 20 266 46
E 20 212 124
E 20 308 72
E 21 165 114
E 21 36 88
E 21 104 14
E 22 67 28
E 22 287 14
E 22 239 46
E 23 26 100
E 23 197 124
E 23 304 46
E 23 130 194
E 24 303 14
E 24 220 58
E 24 112 28
E 24 267 68
E 25 222 8
E 25 142 14
E 25 285 42
E 25 176 46
E 26 198 130
E 26 223 124
E 26 122 6
E 27 216 166
E 27 207 10
E 27 157 26
E 28 288 10
E 28 93 54
E 28 250 26
E 29 43 66
E 29 217 34
E 29 240 92
E 29 166 130
E 30 170 28
E 30 207 166
E 30 216 10
E 31 204 54
E 31 175 52
E 31 65 76
E 31 126 18
E 32 131 74
E 32 245 182
E 32 162 166
E 32 147 58
E 33 173 90
E 33 57 46
E 33 184 72
E 34 277 14
E 34 299 12
E 34 41 52
E 35 309 50
E 35 156 56
E 35 54 32
E 36 296 114
E 36 182 66
E 37 180 52
E 37 181 76
E 37 284 22
E 38 261 39
E 38 166 27
E 39 175 76
E 39 44 14
E 39 193 90
E 39 65 52
E 40 189 142
E 40 186 182
E 41 179 120
E 42 106 58
E 42 124 56
E 42 309 58
E 42 101 32
E 43 132 76
E 43 87 34
E 43 261 130
E 44 236 76
E 44 128 154
E 44 61 90
E 45 246 14
E 45 183 10
E 45 158 28
E 46 109 6
E 47 281 14
E 47 242 28
E 47 220 182
E 48 306 74
E 48 311 66
E 48 142 8
E 48 222 14
E 49 90 92
E 49 113 80
E 50 310 10
E 50 70 52
E 50 69 42
E 51 53 66
E 51 196 12
E 51 66 62
E 52 243 8
E 52 73 46
E 53 71 4
E 53 168 12
E 54 101 108
E 55 297 64
E 55 301 74
E 55 289 10
E 56 93 46
E 56 95 78
E 56 262 26
E 57 179 116
E 58 292 8
E 58 200 10
E 58 257 122
E 59 68 22
E 59 171 46
E 59 192 130
E 60 151 10
E 60 292 66
E 60 140 138
E 61 221 154
E 61 206 10
E 61 193 14
E 62 96 110
E 62 125 166
E 63 72 90
E 63 85 22
E 63 153 31
E 64 286 194
E 64 244 100
E 64 159 6
E 65 310 90
E 66 252 12
E 66 129 42
E 66 209 80
E 67 94 80
E 67 161 14
E 67 139 46
E 68 240 8
E 68 291 34
E 68 121 130
E 69 125 110
E 69 300 18
E 70 193 10
E 70 206 14
E 71 191 12
E 71 254 76
E 72 284 76
E 72 181 22
E 73 133 8
E 73 173 80
E 73 105 12
E 74 117 54
E 74 100 182
E 74 131 170
E 74 77 58
E 75 118 120
E 75 264 142
E 75 89 88
E 76 284 58
E 76 124 58
E 76 106 56
E 77 235 54
E 77 251 170
E 77 84 68
E 78 89 104
E 78 227 76
E 78 146 178
E 79 82 82
E 79 108 14
E 79 175 54
E 79 204 52
E 80 267 28
E 80 112 68
E 80 134 48
E 80 313 64
E 81 88 54
E 81 128 76
E 81 236 154
E 82 211 14
E 82 260 52
E 83 98 106
E 84 195 54
E 84 297 170
E 84 266 120
E 85 181 90
E 85 282 52
E 85 116 10
E 86 293 114
E 86 91 53
E 86 178 32
E 87 146 76
E 87 227 178
E 87 217 66
E 88 298 82
E 88 199 148
E 88 108 154
E 90 120 66
E 90 255 80
E 91 106 79
E 92 302 28
E 92 141 107
E 92 287 66
E 93 152 78
E 94 285 8
E 94 268 14
E 95 152 46
E 95 308 16
E 96 116 42
E 96 272 52
E 97 250 92
E 97 262 8
E 97 248 178
E 98 154 46
E 98 232 194
E 99 205 8
E 99 105 80
E 99 302 80
E 99 268 66
E 100 189 54
E 100 115 170
E 101 123 58
E 102 297 74
E 102 147 68
E 102 203 166
E 102 301 64
E 103 169 20
E 103 260 18
E 103 258 82
E 104 299 114
E 104 253 52
E 105 129 8
E 105 226 80
E 106 123 32
E 107 301 166
E 107 203 64
E 107 183 14
E 107 246 10
E 108 211 82
E 108 236 54
E 109 111 20
E 109 247 124
E 109 198 82
E 110 218 50
E 110 311 74
E 110 306 66
E 111 190 124
E 112 249 48
E 113 255 92
E 113 214 47
E 113 185 128
E 114 271 40
E 114 159 130
E 114 177 40
E 115 245 74
E 115 131 182
E 116 127 52
E 117 186 142
E 117 189 182
E 117 235 58
E 118 149 68
E 118 195 142
E 119 136 62
E 119 259 30
E 119 243 42
E 119 252 46
E 120 145 76
E 120 278 80
E 121 234 8
E 121 192 22
E 122 128 188
E 123 178 132
E 124 172 58
E 125 143 52
E 126 258 54
E 126 180 96
E 127 282 10
E 127 272 42
E 128 221 90
E 129 133 12
E 129 205 80
E 130 221 10
E 130 135 46
E 130 206 154
E 131 251 58
E 132 146 34
E 132 273 130
E 133 252 42
E 133 243 46
E 134 249 68
E 134 201 64
E 135 304 194
E 135 202 106
E 135 224 154
E 136 241 66
E 136 312 30
E 136 196 46
E 137 290 18
E 137 271 42
E 137 247 40
E 138 260 20
E 138 169 18
E 139 174 88
E 139 239 28
E 140 215 4
E 140 163 66
E 140 230 26
E 141 295 27
E 142 209 66
E 142 187 42
E 143 148 14
E 144 151 66
E 144 200 8
E 144 292 10
E 145 276 80
E 147 251 74
E 147 303 166
E 148 224 106
E 148 202 154
E 149 186 58
E 149 235 142
E 150 263 18
E 151 212 44
E 152 266 88
E 153 156 27
E 154 286 100
E 154 244 194
E 155 180 76
E 155 282 90
E 155 181 52
E 156 172 50
E 157 269 26
E 158 207 14
E 158 263 76
E 159 231 100
E 159 223 40
E 160 290 42
E 160 279 182
E 160 271 18
E 161 268 80
E 161 302 66
E 161 287 28
E 162 281 182
E 162 220 14
E 162 303 58
E 163 292 138
E 163 256 62
E 163 233 26
E 164 253 38
E 164 238 28
E 165 277 12
E 165 296 88
E 165 299 14
E 166 234 92
E 166 255 70
E 167 262 22
E 167 215 98
E 168 191 4
E 168 241 46
E 168 196 66
E 169 184 78
E 170 289 74
E 170 301 10
E 170 246 166
E 171 194 34
E 171 228 130
E 172 219 20
E 173 226 12
E 174 176 42
E 174 285 46
E 175 236 14
E 176 229 8
E 177 247 82
E 177 223 130
E 177 198 124
E 178 225 158
E 179 253 6
E 180 208 132
E 182 298 20
E 182 238 154
E 183 267 64
E 183 313 28
E 184 213 18
E 185 218 66
E 185 306 50
E 187 205 66
E 187 268 8
E 187 285 14
E 188 230 152
E 188 312 66
E 188 241 30
E 190 249 90
E 190 247 20
E 192 228 46
E 193 310 52
E 195 235 68
E 195 264 120
E 196 252 62
E 197 223 100
E 197 231 40
E 200 216 52
E 200 275 122
E 201 313 48
E 201 263 38
E 202 274 194
E 203 303 68
E 203 267 14
E 204 260 82
E 204 258 18
E 205 209 42
E 206 224 46
E 207 246 28
E 208 213 24
E 208 293 74
E 209 311 8
E 210 310 18
E 210 282 96
E 211 238 20
E 211 298 154
E 212 289 46
E 213 295 74
E 214 234 23
E 215 270 26
E 217 250 178
E 217 248 92
E 218 254 4
E 219 309 36
E 222 229 46
E 225 283 166
E 225 239 20
E 226 302 80
E 227 250 66
E 228 254 52
E 229 283 20
E 230 270 4
E 230 233 66
E 231 244 6
E 232 244 46
E 233 280 62
E 233 312 152
E 234 240 130
E 237 256 68
E 237 257 138
E 237 265 26
E 240 248 34
E 242 307 158
E 245 281 166
E 248 291 8
E 251 297 68
E 255 278 66
E 256 280 26
E 257 275 10
E 259 312 62
E 259 280 152
E 261 273 76
E 261 278 70
E 262 291 178
E 264 266 54
E 265 280 68
E 265 277 32
E 269 275 44
E 269 296 86
E 272 300 96
E 273 276 70
E 274 304 106
E 276 278 76
E 279 307 42
E 279 286 170
E 283 294 27
E 290 307 182
E 293 295 24
E 294 305 47
E 305 306 80
END

SECTION StochasticProbabilities
SP 0.22730 0.20460 0.29550 0.11360 0.15900
END

SECTION StochasticWeights
SE 183 185 207 203 188 
SE 197 199 189 206 218 
SE 51 52 58 56 51 
SE 16 16 17 18 18 
SE 135 118 129 129 137 
SE 53 59 52 57 54 
SE 7 7 7 7 7 
SE 50 44 52 44 45 
SE 95 104 93 97 102 
SE 7 7 7 7 7 
SE 169 167 144 169 168 
SE 50 44 50 49 45 
SE 59 62 56 63 58 
SE 141 128 137 146 146 
SE 144 136 145 147 137 
SE 85 87 89 90 83 
SE 48 45 46 48 52 
SE 24 25 22 23 25 
SE 174 171 172 191 184 
SE 62 66 62 59 61 
SE 169 193 190 185 188 
SE 5 5 5 5 5 
SE 38 34 34 33 35 
SE 51 51 58 59 58 
SE 155 138 160 153 157 
SE 7 7 7 7 7 
SE 22 22 24 22 24 
SE 166 142 161 141 155 
SE 103 98 102 95 88 
SE 64 56 56 58 60 
SE 90 94 97 86 96 
SE 22 22 20 20 20 
SE 100 111 100 108 106 
SE 111 120 118 114 118 
SE 133 131 136 127 130 
SE 220 215 242 214 251 
SE 201 191 204 199 221 
SE 18 18 16 18 17 
SE 25 23 26 22 24 
SE 63 66 67 61 64 
SE 49 44 45 51 48 
SE 92 97 105 99 104 
SE 188 192 176 173 185 
SE 26 28 26 26 25 
SE 199 218 204 215 227 
SE 58 59 51 51 54 
SE 41 38 42 39 39 
SE 13 13 12 11 12 
SE 21 22 22 21 23 
SE 53 47 53 47 49 
SE 114 118 112 106 118 
SE 157 166 172 174 166 
SE 97 107 114 112 100 
SE 62 65 62 65 64 
SE 84 81 80 81 80 
SE 5 5 5 5 5 
SE 56 52 57 52 55 
SE 32 32 34 32 31 
SE 236 212 236 212 228 
SE 197 174 192 176 203 
SE 66 74 72 64 73 
SE 53 51 57 51 56 
SE 141 140 139 151 160 
SE 91 82 86 89 80 
SE 142 134 135 126 126 
SE 112 110 97 103 100 
SE 18 17 16 16 16 
SE 33 32 31 33 33 
SE 16 18 18 16 17 
SE 53 59 53 54 56 
SE 128 126 122 122 111 
SE 147 152 148 139 148 
SE 52 53 53 52 53 
SE 249 218 218 250 243 
SE 18 16 16 18 18 
SE 74 72 68 68 66 
SE 31 32 31 35 33 
SE 76 82 87 86 86 
SE 9 10 9 10 9 
SE 16 16 17 18 16 
SE 47 54 52 53 52 
SE 57 59 51 56 56 
SE 163 168 163 146 153 
SE 157 157 137 159 156 
SE 7 7 7 7 7 
SE 202 208 206 190 186 
SE 12 11 13 11 11 
SE 30 32 29 33 33 
SE 11 13 13 11 13 
SE 60 65 64 62 65 
SE 31 30 33 30 30 
SE 77 82 84 82 84 
SE 41 38 40 38 39 
SE 108 102 107 102 119 
SE 163 165 161 164 164 
SE 33 32 31 31 32 
SE 190 204 185 189 198 
SE 11 11 12 13 13 
SE 69 67 68 61 64 
SE 63 59 65 64 59 
SE 92 96 86 84 94 
SE 20 20 20 20 20 
SE 91 89 96 87 82 
SE 212 233 203 217 218 
SE 198 213 195 213 202 
SE 70 70 75 73 67 
SE 102 113 101 105 111 
SE 56 51 51 54 56 
SE 84 86 91 80 80 
SE 17 18 16 16 17 
SE 14 14 14 14 15 
SE 64 58 58 59 58 
SE 59 65 64 60 65 
SE 70 66 67 65 72 
SE 39 36 41 36 40 
SE 132 128 126 144 141 
SE 85 84 83 79 85 
SE 58 60 61 60 58 
SE 98 90 98 95 90 
SE 25 27 28 25 25 
SE 50 44 48 49 45 
SE 34 33 34 35 33 
SE 96 88 98 94 91 
SE 16 17 18 16 17 
SE 112 101 100 115 111 
SE 64 58 61 66 67 
SE 157 170 160 166 159 
SE 216 213 209 223 224 
SE 151 148 136 133 149 
SE 73 68 64 70 73 
SE 62 67 66 67 64 
SE 74 67 65 73 66 
SE 40 40 38 37 36 
SE 85 93 91 87 84 
SE 38 44 39 44 40 
SE 162 145 145 146 154 
SE 98 86 84 92 88 
SE 184 178 178 175 178 
SE 100 105 105 110 105 
SE 16 16 16 16 18 
SE 12 13 12 12 12 
SE 35 32 34 35 34 
SE 7 7 7 7 7 
SE 16 17 17 17 17 
SE 32 31 33 33 36 
SE 202 212 204 229 202 
SE 96 94 88 86 87 
SE 74 84 77 82 83 
SE 10 9 9 10 9 
SE 17 16 17 17 16 
SE 104 117 115 118 110 
SE 91 101 101 96 104 
SE 13 11 12 12 13 
SE 60 66 59 66 59 
SE 54 53 50 51 53 
SE 84 74 75 73 74 
SE 14 15 14 14 15 
SE 80 69 80 69 71 
SE 9 9 9 9 9 
SE 56 54 54 55 54 
SE 5 5 5 5 5 
SE 14 14 14 14 14 
SE 138 123 123 123 139 
SE 81 74 81 79 72 
SE 89 84 91 95 94 
SE 12 13 13 11 11 
SE 55 52 51 58 54 
SE 87 90 94 86 95 
SE 29 32 29 33 31 
SE 145 132 139 134 144 
SE 9 10 10 9 9 
SE 11 12 13 12 13 
SE 148 135 139 141 137 
SE 28 25 26 28 28 
SE 53 58 51 58 57 
SE 149 168 167 162 144 
SE 11 12 13 12 13 
SE 77 75 84 82 79 
SE 162 159 164 178 162 
SE 177 175 176 174 172 
SE 12 13 12 12 13 
SE 17 16 16 16 18 
SE 140 137 138 131 124 
SE 186 213 210 197 188 
SE 110 114 102 111 104 
SE 28 25 25 25 26 
SE 35 40 39 40 39 
SE 245 242 219 215 224 
SE 117 116 123 126 127 
SE 7 7 7 7 7 
SE 103 111 100 106 107 
SE 15 15 14 15 15 
SE 49 47 51 51 51 
SE 90 102 98 96 100 
SE 97 89 98 103 102 
SE 16 17 17 17 18 
SE 57 58 54 54 54 
SE 9 9 10 9 10 
SE 38 41 38 39 42 
SE 154 156 168 144 168 
SE 130 126 131 124 142 
SE 20 23 21 20 20 
SE 11 13 11 13 12 
SE 16 17 16 18 18 
SE 14 15 15 15 15 
SE 90 89 85 90 87 
SE 86 97 97 96 87 
SE 28 27 27 28 25 
SE 10 9 9 9 10 
SE 99 102 98 96 92 
SE 15 14 14 14 14 
SE 62 61 64 64 70 
SE 210 216 215 217 223 
SE 200 210 220 196 201 
SE 73 75 73 67 68 
SE 132 133 132 143 138 
SE 179 164 169 176 174 
SE 97 107 101 103 107 
SE 66 64 64 64 69 
SE 65 68 67 75 65 
SE 62 68 67 63 65 
SE 66 69 60 70 63 
SE 205 217 215 219 203 
SE 75 88 76 87 75 
SE 120 133 133 120 133 
SE 88 93 90 95 97 
SE 215 207 201 201 222 
SE 98 104 106 96 96 
SE 18 18 16 18 17 
SE 69 69 63 70 67 
SE 67 63 66 58 66 
SE 34 31 35 36 32 
SE 87 85 84 88 86 
SE 53 53 56 53 53 
SE 77 80 79 76 72 
SE 62 64 60 61 61 
SE 85 98 87 95 85 
SE 194 172 190 182 191 
SE 18 16 16 16 17 
SE 59 65 65 66 67 
SE 131 133 124 132 119 
SE 60 65 65 61 63 
SE 191 218 216 192 190 
SE 151 156 134 137 141 
SE 114 100 103 102 108 
SE 63 63 60 61 66 
SE 13 13 11 12 11 
SE 138 134 128 137 132 
SE 67 66 59 59 62 
SE 37 39 39 40 39 
SE 96 88 88 96 88 
SE 213 211 229 204 207 
SE 81 73 79 73 78 
SE 106 96 92 99 102 
SE 166 163 184 191 164 
SE 184 194 199 175 198 
SE 84 73 73 83 75 
SE 92 96 88 89 101 
SE 90 98 87 101 101 
SE 35 34 31 33 36 
SE 135 125 125 135 126 
SE 74 73 83 73 78 
SE 87 93 89 97 89 
SE 9 9 9 9 9 
SE 16 17 16 17 18 
SE 51 53 59 55 52 
SE 19 18 18 18 20 
SE 51 48 50 47 48 
SE 59 63 58 58 58 
SE 103 115 105 115 109 
SE 10 9 9 10 10 
SE 211 223 214 208 200 
SE 58 54 51 53 52 
SE 243 216 217 227 236 
SE 9 9 10 10 9 
SE 96 90 92 100 89 
SE 103 89 94 91 89 
SE 83 80 85 74 75 
SE 70 61 60 68 69 
SE 194 213 201 190 200 
SE 71 69 69 70 73 
SE 82 88 94 91 85 
SE 78 78 76 76 82 
SE 189 199 207 193 209 
SE 76 72 81 81 73 
SE 22 25 24 24 26 
SE 20 23 23 23 21 
SE 92 105 99 99 95 
SE 147 146 127 135 146 
SE 64 58 65 67 62 
SE 10 10 9 10 9 
SE 98 91 104 104 99 
SE 37 41 39 41 41 
SE 215 183 197 194 190 
SE 71 71 76 77 81 
SE 17 16 16 18 16 
SE 13 12 13 12 11 
SE 92 93 100 94 97 
SE 60 62 60 61 70 
SE 23 25 24 23 24 
SE 160 152 142 159 152 
SE 102 95 91 91 92 
SE 57 64 65 61 62 
SE 89 84 95 84 93 
SE 77 78 84 73 79 
SE 145 157 141 158 150 
SE 53 56 57 58 53 
SE 110 111 116 102 117 
SE 55 58 52 54 59 
SE 166 147 144 148 163 
SE 48 47 51 49 49 
SE 160 157 168 154 168 
SE 52 52 49 49 48 
SE 93 93 86 90 82 
SE 207 201 232 231 205 
SE 59 64 62 59 67 
SE 174 167 160 175 172 
SE 222 236 203 212 209 
SE 68 71 66 66 73 
SE 76 81 78 85 86 
SE 174 167 181 178 181 
SE 73 77 70 69 71 
SE 39 33 38 39 33 
SE 49 48 52 53 52 
SE 53 51 51 55 56 
SE 89 96 92 96 92 
SE 101 94 97 104 104 
SE 10 9 9 9 9 
SE 27 26 25 26 25 
SE 214 222 212 220 235 
SE 170 163 146 157 150 
SE 74 75 72 65 67 
SE 58 59 67 63 61 
SE 63 60 65 68 62 
SE 114 118 113 115 106 
SE 11 12 11 12 12 
SE 53 47 47 47 47 
SE 106 106 107 105 106 
SE 14 15 14 14 15 
SE 104 94 92 91 103 
SE 11 13 12 12 13 
SE 52 55 58 59 57 
SE 193 189 196 195 175 
SE 75 69 67 68 69 
SE 38 38 38 43 40 
SE 167 151 160 148 148 
SE 48 47 52 47 52 
SE 52 58 51 54 58 
SE 75 86 75 75 75 
SE 73 72 71 71 82 
SE 214 233 221 218 244 
SE 133 126 130 120 120 
SE 172 190 170 190 180 
SE 74 82 77 77 83 
SE 35 39 39 38 37 
SE 59 58 54 58 55 
SE 20 22 20 22 23 
SE 49 49 52 54 51 
SE 45 47 44 45 47 
SE 24 23 22 22 22 
SE 22 22 20 23 20 
SE 101 112 97 100 97 
SE 31 34 34 32 36 
SE 5 5 5 5 5 
SE 78 78 73 78 77 
SE 30 29 32 29 33 
SE 31 34 32 33 34 
SE 84 81 85 77 83 
SE 52 48 52 49 48 
SE 18 18 18 17 16 
SE 85 78 85 73 80 
SE 9 9 10 9 10 
SE 13 12 13 12 11 
SE 98 95 104 88 92 
SE 94 82 82 91 84 
SE 212 211 214 191 185 
SE 118 128 135 128 130 
SE 199 172 171 199 191 
SE 64 69 64 72 75 
SE 158 165 162 172 173 
SE 20 22 22 23 20 
SE 55 56 54 55 51 
SE 104 97 108 108 98 
SE 32 32 31 33 30 
SE 119 122 124 111 130 
SE 235 242 248 244 222 
SE 92 90 93 98 90 
SE 108 115 107 107 114 
SE 61 60 63 61 60 
SE 58 57 65 58 63 
SE 31 31 31 29 29 
SE 16 16 16 17 17 
SE 90 97 97 87 98 
SE 128 111 124 128 113 
SE 46 52 45 48 44 
SE 47 50 47 48 53 
SE 220 219 230 204 231 
SE 22 22 21 23 21 
SE 92 101 97 90 100 
SE 76 73 73 74 75 
SE 35 36 35 35 33 
SE 201 207 229 236 224 
SE 16 16 16 18 16 
SE 68 69 68 72 68 
SE 162 173 175 166 158 
SE 72 75 69 76 69 
SE 33 31 30 30 29 
SE 49 44 44 45 42 
SE 32 31 31 31 35 
SE 14 14 14 15 15 
SE 111 105 109 101 102 
SE 17 16 16 16 17 
SE 114 102 105 118 117 
SE 78 83 83 85 80 
SE 25 25 25 25 25 
SE 124 112 116 116 124 
SE 5 5 5 5 5 
SE 58 56 51 51 53 
SE 76 84 74 78 77 
SE 94 100 98 93 97 
SE 88 90 84 94 89 
SE 12 13 11 11 11 
SE 215 194 202 183 190 
SE 43 44 38 39 44 
SE 152 167 167 163 156 
SE 23 23 24 22 23 
SE 14 14 15 15 14 
SE 52 54 53 47 54 
SE 51 59 56 59 59 
SE 16 16 18 16 16 
SE 9 9 9 9 9 
SE 105 100 102 102 94 
SE 158 150 149 154 165 
SE 139 141 150 159 154 
SE 192 189 182 197 199 
SE 7 7 7 7 7 
SE 164 151 164 148 168 
SE 26 23 26 25 26 
SE 198 194 179 195 183 
SE 77 73 74 79 83 
SE 34 31 36 33 31 
SE 22 20 20 23 20 
SE 75 75 77 74 81 
SE 56 64 62 58 63 
SE 73 78 75 74 84 
SE 9 9 9 9 9 
SE 18 16 17 16 18 
SE 193 178 175 184 174 
SE 78 83 79 75 80 
SE 39 36 37 39 38 
SE 100 100 110 100 103 
SE 24 22 22 26 23 
SE 51 51 51 57 53 
SE 58 59 62 59 60 
SE 78 88 75 81 86 
SE 136 142 142 146 140 
SE 69 71 74 78 76 
SE 112 129 113 128 124 
SE 46 52 49 50 51 
SE 64 60 60 63 67 
SE 142 147 147 138 155 
SE 53 57 59 57 53 
SE 45 47 42 45 44 
SE 250 222 227 218 223 
SE 83 79 81 75 85 
SE 17 18 16 17 16 
SE 101 95 97 94 103 
SE 20 22 20 23 20 
SE 52 48 47 54 50 
SE 52 59 58 58 51 
SE 35 36 36 35 34 
SE 27 27 29 30 30 
SE 82 90 88 90 96 
SE 9 9 10 10 9 
SE 20 20 23 20 23 
SE 115 123 114 118 124 
SE 23 23 24 26 25 
SE 188 193 176 183 186 
SE 56 54 54 55 58 
SE 85 84 82 90 85 
SE 28 27 29 27 27 
SE 30 32 31 32 32 
SE 199 216 224 218 229 
SE 114 107 104 117 115 
SE 5 5 5 5 5 
SE 40 45 40 44 45 
SE 58 51 57 51 56 
SE 205 210 190 188 200 
SE 24 24 26 23 26 
SE 90 97 88 90 93 
SE 85 76 85 77 76 
SE 67 58 59 67 62 
SE 24 24 26 25 26 
SE 5 5 5 5 5 
SE 78 82 74 73 77 
SE 7 7 7 7 7 
SE 52 53 54 59 51 
SE 74 70 69 78 71 
SE 182 176 177 168 196 
SE 169 168 143 157 152 
SE 75 76 85 75 85 
SE 166 162 177 161 158 
SE 30 29 32 29 30 
SE 40 44 38 42 38 
SE 202 174 183 182 188 
SE 214 206 201 190 200 
SE 9 9 9 9 9 
SE 87 83 81 81 86 
SE 79 74 81 73 77 
SE 31 32 30 31 33 
SE 12 12 11 11 11 
SE 75 77 78 72 73 
SE 188 175 177 179 173 
SE 84 95 98 90 90 
SE 80 85 84 79 79 
SE 197 226 208 215 206 
SE 64 62 67 67 68 
SE 87 75 85 78 77 
SE 38 41 36 41 38 
SE 50 49 54 55 49 
SE 102 96 102 95 104 
SE 106 122 110 113 118 
SE 86 81 91 79 80 
SE 122 118 120 117 130 
SE 84 90 91 92 94 
SE 52 51 50 53 54 
SE 192 212 220 190 205 
SE 30 30 30 30 30 
SE 201 224 216 224 222 
SE 29 28 30 27 27 
SE 52 57 58 52 60 
SE 96 101 96 100 88 
END

SECTION StochasticTerminals
ST 1 0 0 0 0 0 
ST 2 0 0 0 0 0 
ST 3 0 0 0 0 0 
ST 4 0 0 0 0 0 
ST 5 0 0 0 0 0 
ST 6 0 1 0 0 0 
ST 7 0 0 0 0 0 
ST 8 0 0 0 0 0 
ST 9 0 0 1 0 0 
ST 10 0 0 0 0 0 
ST 11 0 0 0 0 0 
ST 12 0 0 0 0 0 
ST 13 0 0 0 0 0 
ST 14 0 0 0 0 0 
ST 15 0 0 0 0 0 
ST 16 0 0 0 0 0 
ST 17 0 0 0 0 1 
ST 18 0 0 0 0 0 
ST 19 0 0 0 0 0 
ST 20 0 0 0 0 0 
ST 21 0 0 0 0 0 
ST 22 0 0 0 0 0 
ST 23 0 0 0 0 0 
ST 24 0 0 0 0 0 
ST 25 0 0 0 0 0 
ST 26 0 0 0 0 0 
ST 27 0 0 0 0 0 
ST 28 0 0 0 0 0 
ST 29 0 0 0 0 0 
ST 30 0 0 0 0 0 
ST 31 0 0 0 0 0 
ST 32 0 0 0 0 0 
ST 33 1 0 0 0 0 
ST 34 0 0 0 0 0 
ST 35 0 0 0 0 0 
ST 36 0 0 0 1 0 
ST 37 0 0 0 0 0 
ST 38 1 1 1 0 0 
ST 39 0 0 0 0 0 
ST 40 0 0 0 0 0 
ST 41 1 0 0 1 0 
ST 42 0 0 0 0 0 
ST 43 0 1 0 0 0 
ST 44 0 0 0 0 0 
ST 45 0 0 0 0 0 
ST 46 0 0 0 0 0 
ST 47 0 0 0 0 0 
ST 48 0 0 0 0 0 
ST 49 0 0 1 0 1 
ST 50 0 0 0 0 0 
ST 51 0 0 0 0 0 
ST 52 0 0 0 0 0 
ST 53 0 0 0 0 0 
ST 54 0 1 0 0 0 
ST 55 0 0 0 0 0 
ST 56 0 0 0 0 0 
ST 57 0 0 0 0 0 
ST 58 0 1 0 1 1 
ST 59 0 0 0 0 0 
ST 60 0 0 0 1 0 
ST 61 0 1 0 0 0 
ST 62 0 0 0 0 0 
ST 63 0 0 0 0 0 
ST 64 0 0 0 0 0 
ST 65 0 0 0 0 0 
ST 66 0 0 0 0 0 
ST 67 0 0 0 0 0 
ST 68 0 0 0 0 0 
ST 69 0 0 0 0 0 
ST 70 0 0 0 0 0 
ST 71 0 0 0 0 0 
ST 72 0 0 0 0 0 
ST 73 0 0 0 0 0 
ST 74 0 0 0 0 0 
ST 75 0 0 0 0 0 
ST 76 0 0 0 0 0 
ST 77 0 0 0 0 0 
ST 78 1 0 0 0 0 
ST 79 1 0 0 0 0 
ST 80 0 0 0 0 0 
ST 81 0 0 0 0 0 
ST 82 0 0 0 0 0 
ST 83 1 0 0 0 0 
ST 84 0 0 0 0 0 
ST 85 0 1 0 0 0 
ST 86 0 1 0 0 0 
ST 87 0 0 0 0 0 
ST 88 0 0 0 0 0 
ST 89 0 0 0 0 0 
ST 90 0 0 0 0 0 
ST 91 0 0 0 1 0 
ST 92 1 0 0 0 0 
ST 93 0 0 0 0 0 
ST 94 0 0 0 0 0 
ST 95 0 0 0 0 0 
ST 96 0 0 0 0 0 
ST 97 0 0 0 0 0 
ST 98 0 0 0 0 0 
ST 99 0 0 0 0 0 
ST 100 0 0 0 0 0 
ST 101 0 0 1 0 0 
ST 102 0 1 0 0 0 
ST 103 0 0 0 0 0 
ST 104 0 0 0 0 0 
ST 105 0 0 0 0 0 
ST 106 0 0 0 0 0 
ST 107 0 0 0 0 0 
ST 108 0 0 0 0 0 
ST 109 0 0 0 0 0 
ST 110 0 0 0 0 0 
ST 111 0 1 0 0 0 
ST 112 0 0 0 0 0 
ST 113 0 0 0 0 0 
ST 114 0 0 0 0 0 
ST 115 0 0 0 0 0 
ST 116 0 0 0 0 0 
ST 117 0 1 0 0 0 
ST 118 0 0 0 0 1 
ST 119 0 0 0 0 0 
ST 120 0 1 0 0 0 
ST 121 0 0 0 0 0 
ST 122 0 0 0 0 0 
ST 123 0 0 1 0 0 
ST 124 0 0 0 0 0 
ST 125 0 0 0 0 0 
ST 126 0 0 0 0 0 
ST 127 0 0 0 0 0 
ST 128 0 0 0 0 0 
ST 129 0 0 0 0 0 
ST 130 0 0 1 0 1 
ST 131 0 0 0 0 0 
ST 132 0 0 0 0 0 
ST 133 0 0 0 0 0 
ST 134 0 0 0 0 1 
ST 135 0 0 0 0 0 
ST 136 0 0 0 0 0 
ST 137 0 0 0 1 0 
ST 138 0 0 0 1 0 
ST 139 0 0 0 1 0 
ST 140 0 0 0 0 0 
ST 141 1 1 0 0 0 
ST 142 0 0 0 0 0 
ST 143 0 0 0 0 0 
ST 144 0 0 0 0 0 
ST 145 0 0 0 0 0 
ST 146 0 0 0 0 0 
ST 147 0 0 0 1 0 
ST 148 0 0 0 0 0 
ST 149 0 0 0 0 0 
ST 150 1 0 1 1 1 
ST 151 0 0 1 0 0 
ST 152 0 0 0 0 0 
ST 153 0 1 0 0 0 
ST 154 0 0 0 0 1 
ST 155 0 0 0 0 0 
ST 156 0 0 0 0 0 
ST 157 1 1 1 1 1 
ST 158 1 0 0 0 0 
ST 159 0 0 1 0 0 
ST 160 0 0 0 0 0 
ST 161 1 0 0 0 0 
ST 162 1 0 0 0 0 
ST 163 1 0 0 0 0 
ST 164 0 1 1 0 1 
ST 165 0 0 0 0 0 
ST 166 0 0 0 1 0 
ST 167 0 0 0 0 0 
ST 168 0 0 0 0 0 
ST 169 0 0 0 0 0 
ST 170 0 0 0 0 0 
ST 171 0 0 0 0 0 
ST 172 0 0 0 0 0 
ST 173 0 0 0 0 0 
ST 174 0 0 0 0 1 
ST 175 0 0 0 0 0 
ST 176 0 0 0 0 0 
ST 177 0 0 0 0 0 
ST 178 0 0 0 0 0 
ST 179 0 0 0 0 0 
ST 180 0 0 0 0 0 
ST 181 0 0 1 0 0 
ST 182 0 0 0 0 0 
ST 183 0 1 0 0 0 
ST 184 0 0 0 1 0 
ST 185 0 0 0 0 0 
ST 186 0 0 0 0 0 
ST 187 0 0 0 0 0 
ST 188 0 0 0 0 1 
ST 189 0 0 0 0 0 
ST 190 0 0 0 0 1 
ST 191 0 0 0 0 0 
ST 192 0 0 0 0 0 
ST 193 0 0 0 0 0 
ST 194 0 0 0 0 0 
ST 195 0 0 0 0 0 
ST 196 0 0 0 0 0 
ST 197 0 0 0 0 0 
ST 198 0 0 0 0 0 
ST 199 0 0 0 0 0 
ST 200 0 0 0 0 0 
ST 201 0 0 0 1 0 
ST 202 0 0 1 0 0 
ST 203 0 0 0 0 0 
ST 204 0 0 0 0 0 
ST 205 0 0 0 0 0 
ST 206 1 0 1 0 0 
ST 207 0 0 0 0 0 
ST 208 0 0 0 0 0 
ST 209 0 0 0 0 0 
ST 210 0 0 0 0 0 
ST 211 0 0 0 0 0 
ST 212 0 0 0 0 0 
ST 213 0 0 0 0 0 
ST 214 1 1 1 0 0 
ST 215 0 0 0 0 0 
ST 216 0 0 0 0 0 
ST 217 0 0 0 0 0 
ST 218 0 0 0 0 0 
ST 219 0 1 0 1 1 
ST 220 0 1 0 0 1 
ST 221 0 0 0 0 0 
ST 222 0 0 0 0 0 
ST 223 0 0 0 0 0 
ST 224 0 0 0 0 0 
ST 225 0 0 0 0 0 
ST 226 0 0 0 0 0 
ST 227 0 0 0 0 0 
ST 228 0 0 0 0 0 
ST 229 0 0 0 0 0 
ST 230 0 0 0 0 0 
ST 231 0 0 0 0 0 
ST 232 0 0 0 0 0 
ST 233 0 0 0 0 0 
ST 234 0 0 0 0 0 
ST 235 0 0 0 0 0 
ST 236 1 0 0 0 0 
ST 237 0 0 1 0 0 
ST 238 0 0 0 0 0 
ST 239 0 0 1 0 0 
ST 240 0 1 0 0 0 
ST 241 0 0 0 0 0 
ST 242 0 0 0 0 0 
ST 243 0 0 1 0 0 
ST 244 0 0 0 1 0 
ST 245 0 0 0 0 0 
ST 246 0 0 1 0 0 
ST 247 0 0 0 0 0 
ST 248 0 0 0 1 0 
ST 249 0 0 0 0 0 
ST 250 0 0 0 0 0 
ST 251 0 0 0 0 0 
ST 252 0 0 0 0 1 
ST 253 0 0 1 0 0 
ST 254 0 0 0 0 0 
ST 255 0 0 0 0 0 
ST 256 0 0 1 0 0 
ST 257 0 0 0 0 0 
ST 258 1 0 0 0 0 
ST 259 0 0 0 0 0 
ST 260 0 0 0 0 0 
ST 261 0 0 0 0 0 
ST 262 0 0 0 0 0 
ST 263 0 0 0 0 0 
ST 264 0 0 0 0 0 
ST 265 0 0 0 0 0 
ST 266 0 0 0 0 0 
ST 267 0 0 0 0 0 
ST 268 0 0 0 0 0 
ST 269 0 0 0 0 0 
ST 270 0 0 0 0 0 
ST 271 0 0 0 0 0 
ST 272 0 0 0 0 0 
ST 273 0 0 0 0 0 
ST 274 0 0 0 0 0 
ST 275 0 0 0 0 0 
ST 276 0 1 0 0 0 
ST 277 0 0 0 0 0 
ST 278 0 0 0 0 0 
ST 279 0 0 0 0 0 
ST 280 1 0 0 0 0 
ST 281 0 0 0 0 0 
ST 282 0 0 0 0 0 
ST 283 0 0 0 0 0 
ST 284 0 0 0 0 0 
ST 285 0 0 0 1 0 
ST 286 0 0 0 0 0 
ST 287 0 0 0 0 0 
ST 288 1 0 0 1 1 
ST 289 0 0 0 0 0 
ST 290 0 0 0 0 0 
ST 291 0 0 0 0 0 
ST 292 0 0 0 0 0 
ST 293 0 0 0 0 0 
ST 294 0 0 1 0 0 
ST 295 0 0 0 0 0 
ST 296 0 0 0 0 0 
ST 297 0 1 0 0 0 
ST 298 0 0 0 0 0 
ST 299 0 0 0 0 0 
ST 300 0 0 0 0 0 
ST 301 0 0 0 0 0 
ST 302 0 0 0 0 0 
ST 303 0 0 0 0 0 
ST 304 0 0 0 0 0 
ST 305 0 0 0 0 0 
ST 306 0 0 0 0 0 
ST 307 0 0 0 0 0 
ST 308 1 0 0 1 0 
ST 309 0 0 0 0 0 
ST 310 0 0 0 0 0 
ST 311 0 0 0 0 0 
ST 312 1 0 0 0 0 
ST 313 0 0 0 0 0 
END


SECTION Coordinates
DD 1 0 0
DD 2 386 106
DD 3 912 106
DD 4 742 382
DD 5 284 676
DD 6 702 484
DD 7 314 908
DD 8 872 106
DD 9 742 484
DD 10 0 908
DD 11 316 252
DD 12 918 0
DD 13 386 484
DD 14 702 464
DD 15 314 1006
DD 16 316 152
DD 17 596 1128
DD 18 284 908
DD 19 930 622
DD 20 684 1028
DD 21 466 550
DD 22 66 618
DD 23 748 152
DD 24 872 650
DD 25 66 776
DD 26 748 252
DD 27 692 664
DD 28 518 1128
DD 29 280 1128
DD 30 702 830
DD 31 334 328
DD 32 930 830
DD 33 238 556
DD 34 452 676
DD 35 32 162
DD 36 554 550
DD 37 168 328
DD 38 150 1155
DD 39 386 252
DD 40 1112 1270
DD 41 400 676
DD 42 32 270
DD 43 280 1194
DD 44 400 252
DD 45 730 650
DD 46 742 464
DD 47 1112 650
DD 48 80 784
DD 49 0 1036
DD 50 334 152
DD 51 226 838
DD 52 284 726
DD 53 226 904
DD 54 0 162
DD 55 740 904
DD 56 518 1028
DD 57 284 556
DD 58 630 830
DD 59 280 1006
DD 60 630 904
DD 61 400 162
DD 62 168 0
DD 63 146 162
DD 64 918 252
DD 65 334 252
DD 66 226 776
DD 67 66 646
DD 68 280 1028
DD 69 334 110
DD 70 386 152
DD 71 226 908
DD 72 146 252
DD 73 238 726
DD 74 930 1074
DD 75 684 1270
DD 76 88 328
DD 77 872 1074
DD 78 492 1270
DD 79 386 382
DD 80 804 622
DD 81 554 328
DD 82 386 464
DD 83 1112 0
DD 84 804 1074
DD 85 168 162
DD 86 32 460
DD 87 314 1194
DD 88 554 382
DD 89 596 1270
DD 90 0 1128
DD 91 32 407
DD 92 146 618
DD 93 518 1074
DD 94 66 726
DD 95 596 1028
DD 96 168 110
DD 97 492 1036
DD 98 1112 106
DD 99 146 726
DD 100 1112 1074
DD 101 0 270
DD 102 804 830
DD 103 316 464
DD 104 452 550
DD 105 226 726
DD 106 32 328
DD 107 740 664
DD 108 400 382
DD 109 748 464
DD 110 146 858
DD 111 748 484
DD 112 872 622
DD 113 80 1036
DD 114 912 382
DD 115 1112 904
DD 116 168 152
DD 117 930 1128
DD 118 804 1270
DD 119 284 776
DD 120 0 1194
DD 121 150 1028
DD 122 742 252
DD 123 0 328
DD 124 88 270
DD 125 334 0
DD 126 316 328
DD 127 220 152
DD 128 554 252
DD 129 226 734
DD 130 554 152
DD 131 930 904
DD 132 280 1270
DD 133 238 734
DD 134 804 574
DD 135 554 106
DD 136 284 838
DD 137 912 464
DD 138 334 484
DD 139 20 646
DD 140 492 904
DD 141 146 511
DD 142 80 776
DD 143 386 0
DD 144 640 838
DD 145 0 1270
DD 146 314 1270
DD 147 872 830
DD 148 400 0
DD 149 872 1270
DD 150 702 556
DD 151 640 904
DD 152 596 1074
DD 153 115 162
DD 154 1112 152
DD 155 220 252
DD 156 88 162
DD 157 666 664
DD 158 702 650
DD 159 912 252
DD 160 930 422
DD 161 80 646
DD 162 930 664
DD 163 492 838
DD 164 400 512
DD 165 466 664
DD 166 150 1128
DD 167 492 1006
DD 168 238 904
DD 169 316 484
DD 170 730 830
DD 171 280 960
DD 172 88 212
DD 173 238 646
DD 174 20 734
DD 175 386 328
DD 176 20 776
DD 177 872 382
DD 178 0 460
DD 179 400 556
DD 180 220 328
DD 181 168 252
DD 182 554 484
DD 183 740 650
DD 184 238 484
DD 185 80 908
DD 186 930 1270
DD 187 80 734
DD 188 314 904
DD 189 1112 1128
DD 190 872 484
DD 191 238 908
DD 192 150 1006
DD 193 386 162
DD 194 314 960
DD 195 804 1128
DD 196 238 838
DD 197 872 152
DD 198 748 382
DD 199 702 382
DD 200 640 830
DD 201 740 574
DD 202 554 0
DD 203 804 664
DD 204 334 382
DD 205 146 734
DD 206 400 152
DD 207 702 664
DD 208 220 460
DD 209 146 776
DD 210 316 162
DD 211 400 464
DD 212 684 904
DD 213 220 484
DD 214 127 1036
DD 215 492 908
DD 216 692 830
DD 217 314 1128
DD 218 146 908
DD 219 68 212
DD 220 930 650
DD 221 554 162
DD 222 66 784
DD 223 872 252
DD 224 400 106
DD 225 0 618
DD 226 226 646
DD 227 492 1194
DD 228 150 960
DD 229 20 784
DD 230 466 904
DD 231 912 152
DD 232 918 106
DD 233 466 838
DD 234 150 1036
DD 235 872 1128
DD 236 400 328
DD 237 492 708
DD 238 400 484
DD 239 20 618
DD 240 280 1036
DD 241 284 904
DD 242 1112 622
DD 243 284 734
DD 244 918 152
DD 245 1112 830
DD 246 730 664
DD 247 872 464
DD 248 314 1036
DD 249 872 574
DD 250 492 1128
DD 251 872 904
DD 252 238 776
DD 253 400 550
DD 254 150 908
DD 255 80 1128
DD 256 492 776
DD 257 630 708
DD 258 316 382
DD 259 314 776
DD 260 334 464
DD 261 150 1194
DD 262 492 1028
DD 263 702 574
DD 264 684 1128
DD 265 466 708
DD 266 684 1074
DD 267 804 650
DD 268 80 726
DD 269 640 664
DD 270 466 908
DD 271 912 422
DD 272 220 110
DD 273 150 1270
DD 274 748 0
DD 275 640 708
DD 276 80 1270
DD 277 466 676
DD 278 80 1194
DD 279 1112 422
DD 280 466 776
DD 281 1112 664
DD 282 220 162
DD 283 0 784
DD 284 146 328
DD 285 66 734
DD 286 1112 252
DD 287 80 618
DD 288 528 1128
DD 289 730 904
DD 290 930 464
DD 291 314 1028
DD 292 630 838
DD 293 146 460
DD 294 0 811
DD 295 146 484
DD 296 554 664
DD 297 804 904
DD 298 554 464
DD 299 452 664
DD 300 316 110
DD 301 740 830
DD 302 146 646
DD 303 872 664
DD 304 748 106
DD 305 0 858
DD 306 80 858
DD 307 1112 464
DD 308 612 1028
DD 309 32 212
DD 310 334 162
DD 311 146 784
DD 312 314 838
DD 313 740 622
END

EOF
